(declare-const |K:36| Int)
(declare-const |x':30| Int)
(declare-const |y':31| Int)
(assert (and (or (not (and (<= (- |K:36|) 0) (<= |K:36| 0)))
                   (= (+ |x':30| -1) 0))
               (or (not (<= (+ (- |K:36|) 1) 0)) (= |x':30| 0))
               (or (not (<= (- |K:36|) 0)) (= (+ |y':31| (- |K:36|)) 0))
               (or (not (<= (- |K:36|) 0)) (<= (+ |x':30| -1) 0))
               (or (and (= |K:36| 0) (= (- |y':31|) 0)
                          (= (+ (- |x':30|) 1) 0))
                     (and (<= (+ (- |K:36|) 1) 0) (= |x':30| 0)
                            (<= (+ |y':31| -1024) 0) (<= (+ (- |y':31|) 1) 0)))
               (<= (- |K:36|) 0) (<= (- |x':30|) 0) (<= (- |y':31|) 0)
               (<= (+ (- |y':31|) 1024) 0) (not (= |x':30| 0))))
(check-sat)
